param n := 120;
param c := 10000
param : V : p w :=
   0	 442	 432
   1	 275	 265
   2	 313	 303
   3	 375	 365
   4	 292	 282
   5	 363	 353
   6	 458	 448
   7	 270	 260
   8	 302	 292
   9	 506	 496
  10	 260	 250
  11	 264	 254
  12	 373	 363
  13	 275	 265
  14	 382	 372
  15	 382	 372
  16	 308	 298
  17	 340	 330
  18	 501	 491
  19	 263	 253
  20	 266	 256
  21	 439	 429
  22	 270	 260
  23	 321	 311
  24	 402	 392
  25	 278	 268
  26	 350	 340
  27	 443	 433
  28	 261	 251
  29	 326	 316
  30	 416	 406
  31	 269	 259
  32	 345	 335
  33	 375	 365
  34	 262	 252
  35	 393	 383
  36	 403	 393
  37	 281	 271
  38	 346	 336
  39	 390	 380
  40	 313	 303
  41	 327	 317
  42	 391	 381
  43	 305	 295
  44	 334	 324
  45	 434	 424
  46	 278	 268
  47	 318	 308
  48	 508	 498
  49	 260	 250
  50	 262	 252
  51	 424	 414
  52	 265	 255
  53	 341	 331
  54	 431	 421
  55	 278	 268
  56	 321	 311
  57	 501	 491
  58	 260	 250
  59	 269	 259
  60	 503	 493
  61	 260	 250
  62	 267	 257
  63	 378	 368
  64	 275	 265
  65	 377	 367
  66	 418	 408
  67	 299	 289
  68	 313	 303
  69	 454	 444
  70	 272	 262
  71	 304	 294
  72	 413	 403
  73	 269	 259
  74	 348	 338
  75	 495	 485
  76	 263	 253
  77	 272	 262
  78	 475	 465
  79	 270	 260
  80	 285	 275
  81	 431	 421
  82	 264	 254
  83	 335	 325
  84	 361	 351
  85	 306	 296
  86	 363	 353
  87	 406	 396
  88	 286	 276
  89	 338	 328
  90	 399	 389
  91	 305	 295
  92	 326	 316
  93	 493	 483
  94	 261	 251
  95	 276	 266
  96	 408	 398
  97	 299	 289
  98	 323	 313
  99	 373	 363
 100	 318	 308
 101	 339	 329
 102	 409	 399
 103	 289	 279
 104	 332	 322
 105	 399	 389
 106	 293	 283
 107	 338	 328
 108	 412	 402
 109	 261	 251
 110	 357	 347
 111	 367	 357
 112	 290	 280
 113	 373	 363
 114	 437	 427
 115	 287	 277
 116	 306	 296
 117	 385	 375
 118	 269	 259
 119	 376	 366
;

set E :=
   0	   7
   0	  21
   0	  23
   0	  39
   0	  41
   0	  43
   0	  53
   0	  54
   0	  58
   0	  60
   0	  61
   0	  71
   0	  85
   0	  87
   0	  91
   0	  97
   0	  98
   0	 100
   0	 101
   0	 102
   0	 107
   0	 111
   0	 118
   1	   2
   1	   8
   1	  13
   1	  14
   1	  17
   1	  20
   1	  26
   1	  28
   1	  30
   1	  31
   1	  37
   1	  40
   1	  43
   1	  48
   1	  49
   1	  53
   1	  54
   1	  55
   1	  68
   1	  70
   1	  80
   1	  85
   1	  93
   1	  98
   1	 109
   1	 118
   2	   5
   2	   7
   2	  10
   2	  12
   2	  14
   2	  21
   2	  30
   2	  33
   2	  35
   2	  42
   2	  44
   2	  53
   2	  61
   2	  63
   2	  66
   2	  68
   2	  73
   2	  75
   2	  76
   2	  77
   2	  78
   2	  86
   2	 107
   2	 108
   3	   4
   3	   8
   3	   9
   3	  12
   3	  20
   3	  26
   3	  28
   3	  32
   3	  33
   3	  35
   3	  40
   3	  54
   3	  58
   3	  64
   3	  91
   3	  94
   3	 100
   3	 111
   3	 117
   3	 118
   4	   7
   4	  15
   4	  16
   4	  22
   4	  37
   4	  38
   4	  49
   4	  50
   4	  51
   4	  59
   4	  64
   4	  67
   4	  71
   4	  72
   4	  73
   4	  76
   4	  80
   4	  87
   4	  88
   4	  90
   4	  91
   4	  95
   4	 104
   4	 107
   4	 109
   4	 111
   4	 117
   4	 118
   5	  26
   5	  28
   5	  42
   5	  43
   5	  47
   5	  50
   5	  56
   5	  58
   5	  61
   5	  64
   5	  67
   5	  73
   5	  76
   5	  79
   5	  82
   5	  85
   5	  88
   5	  90
   5	  91
   5	  94
   5	 100
   5	 112
   5	 114
   5	 115
   6	  13
   6	  17
   6	  23
   6	  49
   6	  51
   6	  54
   6	  56
   6	  58
   6	  61
   6	  63
   6	  65
   6	  67
   6	  77
   6	  78
   6	  83
   6	  87
   6	  88
   6	  90
   6	 114
   6	 117
   6	 118
   7	   8
   7	  10
   7	  14
   7	  18
   7	  21
   7	  22
   7	  23
   7	  25
   7	  28
   7	  45
   7	  50
   7	  58
   7	  63
   7	  65
   7	  71
   7	  86
   7	  91
   7	  93
   7	 103
   7	 105
   7	 112
   7	 114
   7	 117
   7	 119
   8	   9
   8	  16
   8	  23
   8	  26
   8	  28
   8	  46
   8	  60
   8	  61
   8	  62
   8	  67
   8	  69
   8	  86
   8	  87
   8	  89
   8	 101
   8	 103
   8	 104
   8	 105
   8	 110
   8	 111
   8	 118
   9	  28
   9	  35
   9	  41
   9	  48
   9	  53
   9	  57
   9	  65
   9	  72
   9	  82
   9	  85
   9	  86
   9	  91
   9	 100
   9	 113
   9	 114
   9	 118
   9	 119
  10	  23
  10	  24
  10	  26
  10	  43
  10	  44
  10	  56
  10	  57
  10	  60
  10	  61
  10	  63
  10	  67
  10	  68
  10	  82
  10	  84
  10	  87
  10	  89
  10	  90
  10	  92
  10	  95
  10	 107
  10	 117
  10	 118
  11	  26
  11	  30
  11	  33
  11	  37
  11	  41
  11	  51
  11	  57
  11	  60
  11	  61
  11	  70
  11	  80
  11	  85
  11	  86
  11	  88
  11	  89
  11	  92
  11	 104
  11	 113
  12	  15
  12	  20
  12	  21
  12	  22
  12	  24
  12	  25
  12	  27
  12	  30
  12	  32
  12	  41
  12	  46
  12	  49
  12	  54
  12	  62
  12	  63
  12	  65
  12	  67
  12	  70
  12	  76
  12	  87
  12	  93
  12	  94
  12	  97
  12	  99
  12	 100
  12	 105
  12	 106
  12	 107
  12	 112
  12	 115
  12	 119
  13	  21
  13	  24
  13	  25
  13	  40
  13	  42
  13	  49
  13	  55
  13	  58
  13	  63
  13	  69
  13	  70
  13	  76
  13	  80
  13	  83
  13	  84
  13	  85
  13	  93
  13	  99
  13	 100
  13	 105
  13	 109
  13	 114
  13	 116
  14	  15
  14	  19
  14	  23
  14	  35
  14	  36
  14	  37
  14	  39
  14	  42
  14	  45
  14	  48
  14	  60
  14	  64
  14	  66
  14	  74
  14	  78
  14	  85
  14	  86
  14	  92
  14	 104
  14	 112
  15	  19
  15	  20
  15	  21
  15	  31
  15	  32
  15	  37
  15	  46
  15	  50
  15	  56
  15	  59
  15	  63
  15	  66
  15	  70
  15	  74
  15	  75
  15	  76
  15	  90
  15	  91
  15	  96
  15	 103
  15	 107
  15	 110
  15	 115
  15	 116
  16	  19
  16	  26
  16	  36
  16	  42
  16	  44
  16	  45
  16	  47
  16	  54
  16	  57
  16	  73
  16	  77
  16	  78
  16	  81
  16	  84
  16	  98
  16	  99
  16	 105
  16	 109
  16	 111
  16	 115
  16	 117
  17	  20
  17	  25
  17	  27
  17	  29
  17	  30
  17	  41
  17	  43
  17	  46
  17	  52
  17	  59
  17	  60
  17	  61
  17	  63
  17	  64
  17	  67
  17	  69
  17	  75
  17	  76
  17	  82
  17	  83
  17	  84
  17	  94
  17	  95
  17	  96
  17	 102
  17	 103
  17	 118
  18	  19
  18	  25
  18	  29
  18	  30
  18	  36
  18	  41
  18	  42
  18	  43
  18	  49
  18	  55
  18	  63
  18	  65
  18	  66
  18	  75
  18	  78
  18	  80
  18	  89
  18	  92
  18	  96
  18	  97
  18	  98
  18	 100
  18	 101
  18	 103
  18	 108
  18	 111
  18	 116
  18	 119
  19	  31
  19	  32
  19	  34
  19	  36
  19	  40
  19	  41
  19	  42
  19	  48
  19	  50
  19	  52
  19	  55
  19	  61
  19	  62
  19	  71
  19	  78
  19	  79
  19	  82
  19	  87
  19	  90
  19	  96
  19	 104
  19	 108
  19	 110
  19	 116
  20	  25
  20	  30
  20	  34
  20	  35
  20	  37
  20	  48
  20	  49
  20	  55
  20	  59
  20	  61
  20	  62
  20	  63
  20	  67
  20	  70
  20	  73
  20	  77
  20	  80
  20	  82
  20	  87
  20	  92
  20	 102
  20	 108
  21	  23
  21	  29
  21	  33
  21	  36
  21	  53
  21	  54
  21	  57
  21	  59
  21	  80
  21	  88
  21	  89
  21	  91
  21	  93
  21	  94
  21	  98
  21	 107
  21	 108
  21	 109
  21	 110
  21	 113
  22	  23
  22	  31
  22	  32
  22	  33
  22	  38
  22	  39
  22	  41
  22	  50
  22	  52
  22	  69
  22	  73
  22	  74
  22	  75
  22	  84
  22	  93
  22	  96
  22	 105
  22	 111
  22	 116
  22	 117
  23	  41
  23	  42
  23	  45
  23	  46
  23	  51
  23	  68
  23	  74
  23	  75
  23	  77
  23	  85
  23	  89
  23	  94
  23	 100
  23	 103
  23	 104
  23	 105
  23	 111
  23	 118
  24	  25
  24	  30
  24	  39
  24	  42
  24	  44
  24	  46
  24	  49
  24	  50
  24	  52
  24	  67
  24	  72
  24	  79
  24	  80
  24	  84
  24	  86
  24	  96
  24	 103
  24	 104
  24	 105
  24	 106
  24	 108
  24	 110
  24	 114
  24	 115
  24	 118
  25	  27
  25	  28
  25	  37
  25	  38
  25	  43
  25	  48
  25	  59
  25	  62
  25	  70
  25	  72
  25	  74
  25	  85
  25	  92
  25	  96
  25	  99
  25	 103
  26	  35
  26	  36
  26	  38
  26	  41
  26	  43
  26	  46
  26	  50
  26	  54
  26	  58
  26	  71
  26	  72
  26	  75
  26	  78
  26	  82
  26	  83
  26	  87
  26	  92
  26	  94
  26	 102
  26	 105
  26	 109
  26	 110
  26	 116
  26	 118
  27	  38
  27	  40
  27	  45
  27	  49
  27	  54
  27	  56
  27	  61
  27	  71
  27	  74
  27	  81
  27	  82
  27	 101
  27	 114
  27	 116
  28	  29
  28	  31
  28	  33
  28	  35
  28	  43
  28	  47
  28	  48
  28	  61
  28	  63
  28	  68
  28	  75
  28	  80
  28	  81
  28	  84
  28	  86
  28	 108
  28	 117
  29	  30
  29	  39
  29	  53
  29	  54
  29	  55
  29	  58
  29	  65
  29	  66
  29	  72
  29	  74
  29	  75
  29	  79
  29	  81
  29	 104
  29	 106
  29	 107
  29	 111
  29	 113
  30	  33
  30	  36
  30	  38
  30	  39
  30	  41
  30	  42
  30	  51
  30	  56
  30	  59
  30	  66
  30	  69
  30	  76
  30	  94
  30	 107
  30	 116
  31	  34
  31	  45
  31	  60
  31	  63
  31	  65
  31	  75
  31	  78
  31	  79
  31	  81
  31	  85
  31	 104
  31	 107
  31	 110
  31	 114
  32	  41
  32	  43
  32	  56
  32	  58
  32	  66
  32	  80
  32	  81
  32	  88
  32	  90
  32	  94
  32	  99
  32	 104
  32	 105
  32	 107
  32	 109
  32	 111
  32	 113
  32	 116
  33	  34
  33	  38
  33	  40
  33	  41
  33	  53
  33	  58
  33	  59
  33	  62
  33	  63
  33	  76
  33	  80
  33	  93
  33	  95
  33	  97
  33	  99
  33	 104
  33	 117
  33	 118
  33	 119
  34	  36
  34	  38
  34	  40
  34	  42
  34	  45
  34	  50
  34	  60
  34	  64
  34	  65
  34	  69
  34	  73
  34	  81
  34	  91
  34	  98
  34	 100
  34	 106
  34	 107
  34	 116
  35	  39
  35	  44
  35	  45
  35	  48
  35	  49
  35	  58
  35	  63
  35	  68
  35	  72
  35	  74
  35	  79
  35	  80
  35	  81
  35	  87
  35	 104
  35	 108
  35	 114
  36	  42
  36	  50
  36	  62
  36	  63
  36	  71
  36	  73
  36	  98
  36	 101
  36	 103
  36	 105
  36	 111
  36	 114
  36	 117
  36	 119
  37	  39
  37	  44
  37	  57
  37	  58
  37	  59
  37	  66
  37	  74
  37	  78
  37	  79
  37	  82
  37	  95
  37	 108
  37	 109
  37	 113
  37	 114
  37	 116
  38	  49
  38	  62
  38	  63
  38	  64
  38	  66
  38	  82
  38	  84
  38	  88
  38	 108
  38	 110
  38	 112
  38	 113
  39	  61
  39	  69
  39	  74
  39	  75
  39	  77
  39	  85
  39	  88
  39	  89
  39	  97
  39	 102
  39	 107
  39	 118
  40	  41
  40	  45
  40	  46
  40	  50
  40	  52
  40	  56
  40	  57
  40	  58
  40	  63
  40	  70
  40	  72
  40	  73
  40	  74
  40	  89
  40	  98
  40	 101
  40	 112
  41	  42
  41	  50
  41	  51
  41	  54
  41	  56
  41	  57
  41	  73
  41	  75
  41	  76
  41	  77
  41	  84
  41	  87
  41	  88
  41	  90
  41	  93
  41	  98
  41	 101
  41	 103
  41	 107
  41	 108
  41	 113
  41	 115
  41	 117
  41	 119
  42	  44
  42	  48
  42	  50
  42	  53
  42	  57
  42	  59
  42	  60
  42	  61
  42	  65
  42	  75
  42	  76
  42	  78
  42	  83
  42	  84
  42	  89
  42	  92
  42	  96
  42	  99
  42	 104
  42	 111
  43	  45
  43	  55
  43	  61
  43	  62
  43	  77
  43	  83
  43	  88
  43	  97
  43	 100
  43	 103
  43	 110
  43	 113
  43	 119
  44	  48
  44	  64
  44	  70
  44	  74
  44	  82
  44	  86
  44	  97
  44	 100
  44	 105
  44	 112
  44	 118
  45	  50
  45	  51
  45	  59
  45	  60
  45	  74
  45	  75
  45	  76
  45	  83
  45	  85
  45	  88
  45	  89
  45	  93
  45	  96
  45	 100
  45	 108
  45	 109
  45	 112
  45	 118
  46	  49
  46	  64
  46	  98
  46	 108
  46	 110
  46	 112
  46	 115
  46	 117
  47	  49
  47	  50
  47	  57
  47	  60
  47	  62
  47	  71
  47	  86
  47	  94
  47	 107
  47	 111
  47	 114
  47	 115
  48	  50
  48	  53
  48	  63
  48	  65
  48	  69
  48	  71
  48	  74
  48	  75
  48	  81
  48	  83
  48	  88
  48	  96
  48	  98
  48	 109
  48	 111
  49	  50
  49	  58
  49	  66
  49	  68
  49	  75
  49	  80
  49	  88
  49	  89
  49	  91
  49	 101
  49	 102
  49	 105
  49	 107
  49	 112
  49	 119
  50	  53
  50	  57
  50	  69
  50	  72
  50	  74
  50	  76
  50	  85
  50	  98
  50	 107
  50	 110
  50	 113
  50	 115
  51	  53
  51	  56
  51	  61
  51	  65
  51	  73
  51	  84
  51	  89
  51	 104
  51	 115
  51	 116
  51	 118
  52	  55
  52	  57
  52	  58
  52	  74
  52	  82
  52	  85
  52	  89
  52	  99
  52	 101
  52	 104
  52	 109
  52	 113
  52	 115
  52	 118
  53	  85
  53	  92
  53	  99
  53	 101
  53	 103
  53	 108
  53	 110
  53	 111
  53	 114
  53	 119
  54	  55
  54	  58
  54	  59
  54	  72
  54	  74
  54	  91
  54	  94
  54	  95
  54	  96
  54	  97
  54	  99
  54	 100
  54	 101
  54	 105
  54	 107
  54	 111
  54	 114
  54	 119
  55	  59
  55	  65
  55	  68
  55	  71
  55	  72
  55	  74
  55	  76
  55	  77
  55	  83
  55	  87
  55	  89
  55	  92
  55	  97
  55	 110
  55	 113
  55	 115
  56	  58
  56	  63
  56	  64
  56	  65
  56	  69
  56	  72
  56	  75
  56	  77
  56	  83
  56	  85
  56	  87
  56	  89
  56	  98
  56	  99
  56	 104
  56	 106
  56	 112
  56	 116
  56	 119
  57	  58
  57	  63
  57	  64
  57	  67
  57	  77
  57	  80
  57	  83
  57	  84
  57	  88
  57	  95
  57	  96
  57	 103
  57	 112
  58	  59
  58	  60
  58	  61
  58	  65
  58	  66
  58	  67
  58	  68
  58	  71
  58	  77
  58	  80
  58	  88
  58	  89
  58	  92
  58	  97
  58	  99
  58	 103
  58	 105
  58	 112
  59	  62
  59	  68
  59	  78
  59	  81
  59	  82
  59	  88
  59	  95
  59	 104
  59	 107
  59	 112
  59	 114
  60	  65
  60	  66
  60	  67
  60	  68
  60	  72
  60	  75
  60	  76
  60	  78
  60	  82
  60	  95
  60	  99
  60	 101
  60	 102
  60	 109
  60	 112
  60	 117
  60	 119
  61	  63
  61	  64
  61	  67
  61	  68
  61	  75
  61	  77
  61	  79
  61	 113
  62	  64
  62	  66
  62	  70
  62	  72
  62	  79
  62	  84
  62	  88
  62	  91
  62	  93
  62	 107
  62	 108
  62	 109
  63	  68
  63	  71
  63	  80
  63	  81
  63	  94
  63	 100
  63	 101
  63	 103
  63	 108
  63	 111
  63	 116
  63	 117
  63	 118
  64	  68
  64	  73
  64	  88
  64	  97
  64	 103
  64	 114
  65	  66
  65	  72
  65	  78
  65	  79
  65	  90
  65	  97
  66	  69
  66	  78
  66	  79
  66	  84
  66	  93
  66	  96
  66	  98
  66	 108
  66	 113
  66	 119
  67	  74
  67	  77
  67	  78
  67	  85
  67	  87
  67	  92
  67	  95
  67	 106
  67	 112
  67	 113
  67	 115
  67	 117
  68	  81
  68	  85
  68	  87
  68	  91
  68	  92
  68	 106
  68	 112
  68	 114
  68	 119
  69	  72
  69	  73
  69	  81
  69	  87
  69	  88
  69	  91
  69	  94
  69	 106
  69	 110
  69	 114
  69	 117
  70	  71
  70	  72
  70	  77
  70	 102
  70	 105
  70	 109
  70	 110
  70	 119
  71	  74
  71	  83
  71	  84
  71	  85
  71	  88
  71	  95
  71	  96
  71	  99
  71	 100
  71	 109
  71	 110
  71	 112
  71	 119
  72	  85
  72	  89
  72	  91
  72	  92
  72	  94
  72	 103
  72	 104
  72	 111
  73	  74
  73	  80
  73	 105
  73	 107
  73	 110
  73	 112
  73	 115
  74	  81
  74	  82
  74	  85
  74	  89
  74	 100
  74	 114
  74	 118
  75	  80
  75	  82
  75	  84
  75	  91
  75	  99
  75	 102
  75	 105
  75	 109
  76	  77
  76	  85
  76	  86
  76	  89
  76	  98
  76	 105
  76	 114
  77	  82
  77	  94
  77	 102
  77	 106
  77	 109
  78	  82
  78	  87
  78	  90
  78	  98
  78	 102
  78	 103
  78	 104
  78	 110
  78	 113
  78	 116
  79	  94
  79	  95
  79	  98
  79	 100
  79	 105
  79	 119
  80	  85
  80	  95
  80	 115
  80	 119
  81	  82
  81	  86
  81	  92
  81	  94
  81	 113
  81	 115
  81	 117
  81	 119
  82	  86
  82	  87
  82	  88
  82	  89
  82	  92
  82	  98
  82	 100
  82	 104
  82	 108
  82	 112
  82	 119
  83	  84
  83	  85
  83	  92
  83	  96
  83	  99
  83	 110
  83	 112
  83	 116
  84	  91
  84	  93
  84	  94
  84	 100
  84	 102
  84	 103
  84	 118
  85	  86
  85	  88
  85	  90
  85	  91
  85	 105
  85	 107
  85	 111
  85	 112
  86	  90
  86	 103
  86	 119
  87	  91
  87	 109
  87	 113
  87	 114
  87	 117
  88	  91
  88	 107
  88	 113
  89	  90
  89	  95
  89	 100
  89	 103
  89	 106
  89	 115
  90	  91
  90	  94
  90	  95
  90	 100
  90	 104
  90	 106
  90	 118
  91	  92
  91	  97
  91	 103
  91	 109
  91	 112
  91	 116
  91	 119
  92	 108
  92	 116
  92	 118
  93	  96
  93	 100
  93	 103
  93	 105
  93	 108
  93	 114
  93	 116
  93	 119
  94	  97
  94	 101
  94	 103
  94	 108
  94	 111
  94	 112
  94	 117
  95	  98
  95	  99
  95	 100
  95	 101
  95	 106
  95	 109
  95	 110
  95	 111
  95	 118
  95	 119
  96	  99
  96	 105
  96	 111
  96	 117
  97	 102
  98	 102
  98	 108
  98	 111
  98	 117
  99	 103
  99	 108
  99	 109
  99	 115
  99	 119
 100	 106
 101	 102
 101	 110
 101	 117
 102	 105
 102	 108
 103	 110
 103	 112
 103	 116
 104	 110
 104	 112
 104	 113
 104	 116
 105	 111
 105	 118
 106	 109
 106	 112
 106	 113
 106	 119
 107	 117
 108	 111
 108	 116
 109	 114
 110	 114
 111	 112
 112	 113
 113	 116
 116	 119
;
